numNurses = 189;
hours = 71;
demand = [14 20 16 1 46 4 42 30 16 24 34 15 15 0 5 19 15 3 11 33 44 33 41 4 24 12 21 8 20 11 8 38 27 28 7 15 17 18 25 24 41 16 5 18 36 18 24 30 33 41 14 26 2 17 11 0 46 30 34 34 42 16 15 1 10 46 8 30 27 26 26];
minHours = 30;
maxHours = 43;
maxConsec = 21;
maxPresence = 67;